benchmarks_vrp/CMT5/min_c/CMT5_13.vrp
NAME: CMT5_13
TYPE: CVRP
COMMENT: 1291.29 - Cluster Nr.13
DIMENSION: 5
CAPACITY: 200
EDGE_WEIGHT_TYPE: EUC_2D
NODE_COORD_TYPE: TWOD_COORDS
NODE_COORD_SECTION: 
2 13 52
5 15 60
1 16 57
3 15 47
4 35 35
DEPOT_SECTION: 
4
-1
DEMAND_SECTION: 
1 16
2 36
5 17
3 16
4 0
EOF
