benchmarks_vrp/CMT5/min_c/CMT5_13.tour
NAME: CMT5_13 solution
TYPE: TOUR
TOUR_SECTION:
4 1 5 2 3 -1
-1
EOF